c 1 no_asm
c 2 no_deblock
c 3 no_8x8dct
c 4 no_mbtree
c 5 rc_lookahead_60
c 6 rc_lookahead_40
c 7 rc_lookahead_20
c 8 no_weightb
c 9 x264
c 10 ref_one
c 11 ref
c 12 no_fast_pskip
c 13 rc_lookahead
c 14 ref_9
c 15 no_cabac
c 16 ref_5
c 17 no_mixed_refs
p cnf 17 26
9 0
9 -1 0
9 -3 0
9 -15 0
9 -2 0
9 -13 0
9 -12 0
9 -11 0
9 -17 0
9 -4 0
9 -8 0
1 -9 0
11 -10 0
11 -16 0
11 -14 0
10 16 14 -11 0
-10 -16 0
-10 -14 0
-16 -14 0
13 -7 0
13 -6 0
13 -5 0
7 6 5 -13 0
-7 -6 0
-7 -5 0
-6 -5 0
